\ Model Glover
\ LP format - for model browsing. Use MPS format to capture full model detail.
Minimize
  0 C9 + 0 C10 + 0 C11 + C12 + C13 + C14
Subject To
 R0: C0 - C12 <= 0.6
 R1: C0 + C12 >= 0.6
 R2: C12 <= 10
 R3: C12 >= 0
 R4: C1 - C13 <= -0.3
 R5: C1 + C13 >= -0.3
 R6: C13 <= 10
 R7: C13 >= 0
 R8: C2 - C14 <= 0.4
 R9: C2 + C14 >= 0.4
 R10: C14 <= 10
 R11: C14 >= 0
 R12: 0.3 C0 - 0.15 C1 + 0.3 C2 - 15 C15 <= 0.2
 R13: 0.3 C0 - 0.15 C1 + 0.3 C2 - 15 C15 >= -14.8
 R14: - 0.3 C0 + 0.15 C1 - 0.3 C2 + C3 - 15 C15 >= -15.2
 R15: C3 + 15 C15 >= 0
 R16: - 0.3 C0 + 0.15 C1 - 0.3 C2 + C3 + 15 C15 <= 14.8
 R17: C3 - 15 C15 <= 0
 R18: - 0.2 C0 - 0.5 C1 + 0.5 C2 - 15 C16 <= -0.1
 R19: - 0.2 C0 - 0.5 C1 + 0.5 C2 - 15 C16 >= -15.1
 R20: 0.2 C0 + 0.5 C1 - 0.5 C2 + C4 - 15 C16 >= -14.9
 R21: C4 + 15 C16 >= 0
 R22: 0.2 C0 + 0.5 C1 - 0.5 C2 + C4 + 15 C16 <= 15.1
 R23: C4 - 15 C16 <= 0
 R24: - 0.3 C3 + 0.3 C4 - 15 C17 <= -0.3
 R25: - 0.3 C3 + 0.3 C4 - 15 C17 >= -15.3
 R26: 0.3 C3 - 0.3 C4 + C5 - 15 C17 >= -14.7
 R27: C5 + 15 C17 >= 0
 R28: 0.3 C3 - 0.3 C4 + C5 + 15 C17 <= 15.3
 R29: C5 - 15 C17 <= 0
 R30: 0.1 C3 - 0.2 C4 - 15 C18 <= 0.2
 R31: 0.1 C3 - 0.2 C4 - 15 C18 >= -14.8
 R32: - 0.1 C3 + 0.2 C4 + C6 - 15 C18 >= -15.2
 R33: C6 + 15 C18 >= 0
 R34: - 0.1 C3 + 0.2 C4 + C6 + 15 C18 <= 14.8
 R35: C6 - 15 C18 <= 0
 R36: 0.15 C3 - 0.15 C4 - 15 C19 <= -0.3
 R37: 0.15 C3 - 0.15 C4 - 15 C19 >= -15.3
 R38: - 0.15 C3 + 0.15 C4 + C7 - 15 C19 >= -14.7
 R39: C7 + 15 C19 >= 0
 R40: - 0.15 C3 + 0.15 C4 + C7 + 15 C19 <= 15.3
 R41: C7 - 15 C19 <= 0
 R42: 0.8 C3 + 0.6 C4 - 15 C20 <= 0.1
 R43: 0.8 C3 + 0.6 C4 - 15 C20 >= -14.9
 R44: - 0.8 C3 - 0.6 C4 + C8 - 15 C20 >= -15.1
 R45: C8 + 15 C20 >= 0
 R46: - 0.8 C3 - 0.6 C4 + C8 + 15 C20 <= 14.9
 R47: C8 - 15 C20 <= 0
 R48: - 0.53 C5 - 0.04 C6 + 0.35 C7 + 0.17 C8 >= 0.72
 R49: - 0.64 C5 - 0.81 C6 + 0.02 C7 + 0.28 C8 >= 0.61
Bounds
 C0 >= -15
 C1 >= -15
 C2 >= -15
Binaries
 C15 C16 C17 C18 C19 C20
End
